; benchmark generated from python API
(set-info :status unknown)
(declare-fun x_day () Int)
(declare-fun x_month () Int)
(declare-fun x_year () Int)
(declare-fun x_epoch () Int)
(declare-fun y_day () Int)
(declare-fun y_month () Int)
(declare-fun y_year () Int)
(declare-fun y_epoch () Int)
(declare-fun x_shift_period_502532_day () Int)
(declare-fun x_shift_period_502532_month () Int)
(declare-fun x_shift_period_502532_year () Int)
(declare-fun x_shift_period_502532_epoch () Int)
(declare-fun x_shift_period_504889_day () Int)
(declare-fun x_shift_period_504889_month () Int)
(declare-fun x_shift_period_504889_year () Int)
(declare-fun x_shift_period_504889_epoch () Int)
(assert
 (let (($x568 (> x_month 2)))
 (let (($x672 (= (mod x_year 4) 0)))
 (let (($x356 (= (mod x_year 100) 0)))
 (let (($x938 (= (mod x_year 400) 0)))
 (let (($x1010 (ite $x938 true (ite $x356 false $x672))))
 (let (($x652 (= x_month 9)))
 (let ((?x567 (ite $x652 243 (ite (= x_month 10) 273 (ite (= x_month 11) 304 334)))))
 (let (($x395 (= x_month 6)))
 (let ((?x112 (ite $x395 151 (ite (= x_month 7) 181 (ite (= x_month 8) 212 ?x567)))))
 (let (($x788 (= x_month 4)))
 (let (($x231 (= x_month 3)))
 (let (($x620 (= x_month 2)))
 (let ((?x315 (ite $x620 31 (ite $x231 59 (ite $x788 90 (ite (= x_month 5) 120 ?x112))))))
 (let (($x503 (= x_month 1)))
 (let ((?x943 (ite $x503 0 ?x315)))
 (let ((?x1268 (- (+ (* 365 (- x_year 1)) (div (- x_year 1) 4)) (div (- x_year 1) 100))))
 (let ((?x328 (+ (+ ?x1268 (div (- x_year 1) 400)) (+ ?x943 (ite (and $x1010 $x568) 1 0)))))
 (let (($x182 (<= x_year 2400)))
 (let (($x1406 (>= x_year 1600)))
 (let ((?x564 (ite (or $x788 $x395 $x652 (= x_month 11)) 30 31)))
 (let ((?x889 (ite $x620 (ite $x1010 29 28) ?x564)))
 (let (($x1426 (>= x_day 1)))
 (let (($x150 (<= x_month 12)))
 (let (($x1627 (>= x_month 1)))
 (and $x1627 $x150 $x1426 (<= x_day ?x889) $x1406 $x182 (= x_epoch (+ ?x328 (- x_day 1)))))))))))))))))))))))))))))
(assert
 (let (($x855 (= (mod y_year 4) 0)))
 (let (($x310 (= (mod y_year 100) 0)))
 (let (($x441 (= (mod y_year 400) 0)))
 (let (($x1290 (ite $x441 true (ite $x310 false $x855))))
 (let (($x926 (= y_month 9)))
 (let ((?x3034 (ite $x926 243 (ite (= y_month 10) 273 (ite (= y_month 11) 304 334)))))
 (let (($x2940 (= y_month 6)))
 (let ((?x3469 (ite $x2940 151 (ite (= y_month 7) 181 (ite (= y_month 8) 212 ?x3034)))))
 (let (($x2900 (= y_month 4)))
 (let (($x491 (= y_month 3)))
 (let (($x387 (= y_month 2)))
 (let ((?x2544 (ite $x387 31 (ite $x491 59 (ite $x2900 90 (ite (= y_month 5) 120 ?x3469))))))
 (let (($x379 (= y_month 1)))
 (let ((?x3047 (ite $x379 0 ?x2544)))
 (let ((?x3482 (- (+ (* 365 (- y_year 1)) (div (- y_year 1) 4)) (div (- y_year 1) 100))))
 (let ((?x440 (+ (+ ?x3482 (div (- y_year 1) 400)) (+ ?x3047 (ite (and $x1290 (> y_month 2)) 1 0)))))
 (let (($x1425 (<= y_year 2400)))
 (let (($x148 (>= y_year 1600)))
 (let ((?x1762 (ite (or $x2900 $x2940 $x926 (= y_month 11)) 30 31)))
 (let ((?x179 (ite $x387 (ite $x1290 29 28) ?x1762)))
 (let (($x582 (>= y_day 1)))
 (let (($x691 (<= y_month 12)))
 (let (($x818 (>= y_month 1)))
 (and $x818 $x691 $x582 (<= y_day ?x179) $x148 $x1425 (= y_epoch (+ ?x440 (- y_day 1))))))))))))))))))))))))))))
(assert
 (let (($x3871 (= x_year 2019)))
 (let (($x4150 (and $x3871 (= x_month 12) (>= x_day 31))))
 (or (> x_year 2019) (and $x3871 (> x_month 12)) $x4150))))
(assert
 (let (($x146 (<= x_day 1)))
 (let (($x620 (= x_month 2)))
 (let (($x606 (= x_year 2020)))
 (let (($x4148 (and $x606 $x620 $x146)))
 (let (($x6540 (and $x606 (< x_month 2))))
 (let (($x2350 (< x_year 2020)))
 (or $x2350 $x6540 $x4148))))))))
(assert
 (let (($x3869 (= (mod x_shift_period_502532_year 4) 0)))
 (let (($x4429 (= (mod x_shift_period_502532_year 100) 0)))
 (let (($x4979 (= (mod x_shift_period_502532_year 400) 0)))
 (let (($x687 (ite $x4979 true (ite $x4429 false $x3869))))
 (let ((?x3127 (ite (= x_shift_period_502532_month 10) 273 (ite (= x_shift_period_502532_month 11) 304 334))))
 (let (($x762 (= x_shift_period_502532_month 9)))
 (let ((?x761 (ite (= x_shift_period_502532_month 7) 181 (ite (= x_shift_period_502532_month 8) 212 (ite $x762 243 ?x3127)))))
 (let (($x3987 (= x_shift_period_502532_month 6)))
 (let (($x3870 (= x_shift_period_502532_month 4)))
 (let ((?x5089 (ite $x3870 90 (ite (= x_shift_period_502532_month 5) 120 (ite $x3987 151 ?x761)))))
 (let (($x845 (= x_shift_period_502532_month 2)))
 (let ((?x5093 (ite (= x_shift_period_502532_month 1) 0 (ite $x845 31 (ite (= x_shift_period_502532_month 3) 59 ?x5089)))))
 (let ((?x473 (+ ?x5093 (ite (and $x687 (> x_shift_period_502532_month 2)) 1 0))))
 (let ((?x2324 (+ (* 365 (- x_shift_period_502532_year 1)) (div (- x_shift_period_502532_year 1) 4))))
 (let ((?x4519 (+ (- ?x2324 (div (- x_shift_period_502532_year 1) 100)) (div (- x_shift_period_502532_year 1) 400))))
 (let (($x4322 (= x_shift_period_502532_epoch (+ (+ ?x4519 ?x473) (- x_shift_period_502532_day 1)))))
 (let (($x4104 (<= x_shift_period_502532_year 2400)))
 (let (($x5295 (>= x_shift_period_502532_year 1600)))
 (let ((?x3728 (ite (or $x3870 $x3987 $x762 (= x_shift_period_502532_month 11)) 30 31)))
 (let (($x2706 (>= x_shift_period_502532_day 1)))
 (let (($x5214 (<= x_shift_period_502532_month 12)))
 (let (($x802 (>= x_shift_period_502532_month 1)))
 (and $x802 $x5214 $x2706 (<= x_shift_period_502532_day (ite $x845 (ite $x687 29 28) ?x3728)) $x5295 $x4104 $x4322))))))))))))))))))))))))
(assert
 (let ((?x1306 (* 12 x_year)))
 (let ((?x2663 (+ ?x1306 (- x_month 1))))
 (let ((?x2186 (+ ?x2663 12)))
 (let ((?x3508 (div ?x2186 12)))
 (= x_shift_period_502532_year ?x3508))))))
(assert
 (let ((?x2902 (+ (mod (+ (+ (* 12 x_year) (- x_month 1)) 12) 12) 1)))
 (= x_shift_period_502532_month ?x2902)))
(assert
 (let ((?x2902 (+ (mod (+ (+ (* 12 x_year) (- x_month 1)) 12) 12) 1)))
 (let ((?x881 (ite (or (= ?x2902 4) (= ?x2902 6) (= ?x2902 9) (= ?x2902 11)) 30 31)))
 (let ((?x1306 (* 12 x_year)))
 (let ((?x2663 (+ ?x1306 (- x_month 1))))
 (let ((?x2186 (+ ?x2663 12)))
 (let ((?x3508 (div ?x2186 12)))
 (let (($x526 (ite (= (mod ?x3508 400) 0) true (ite (= (mod ?x3508 100) 0) false (= (mod ?x3508 4) 0)))))
 (let ((?x1898 (ite (= ?x2902 2) (ite $x526 29 28) ?x881)))
 (let ((?x2886 (ite (<= x_day ?x1898) x_day ?x1898)))
 (let (($x737 (= x_month 11)))
 (let (($x652 (= x_month 9)))
 (let (($x395 (= x_month 6)))
 (let (($x788 (= x_month 4)))
 (let ((?x564 (ite (or $x788 $x395 $x652 $x737) 30 31)))
 (let (($x672 (= (mod x_year 4) 0)))
 (let (($x356 (= (mod x_year 100) 0)))
 (let (($x938 (= (mod x_year 400) 0)))
 (let (($x1010 (ite $x938 true (ite $x356 false $x672))))
 (let (($x620 (= x_month 2)))
 (let ((?x889 (ite $x620 (ite $x1010 29 28) ?x564)))
 (let (($x242 (= x_day ?x889)))
 (let ((?x211 (ite false (ite $x242 ?x1898 ?x2886) ?x2886)))
 (= x_shift_period_502532_day ?x211))))))))))))))))))))))))
(assert
 (= y_epoch x_shift_period_502532_epoch))
(assert
 (let (($x1655 (= (mod x_shift_period_504889_year 4) 0)))
 (let (($x4802 (= (mod x_shift_period_504889_year 100) 0)))
 (let (($x4799 (= (mod x_shift_period_504889_year 400) 0)))
 (let (($x2685 (ite $x4799 true (ite $x4802 false $x1655))))
 (let ((?x1020 (ite (= x_shift_period_504889_month 10) 273 (ite (= x_shift_period_504889_month 11) 304 334))))
 (let (($x3701 (= x_shift_period_504889_month 9)))
 (let ((?x1403 (ite (= x_shift_period_504889_month 7) 181 (ite (= x_shift_period_504889_month 8) 212 (ite $x3701 243 ?x1020)))))
 (let (($x5203 (= x_shift_period_504889_month 6)))
 (let (($x185 (= x_shift_period_504889_month 4)))
 (let ((?x3304 (ite $x185 90 (ite (= x_shift_period_504889_month 5) 120 (ite $x5203 151 ?x1403)))))
 (let (($x4240 (= x_shift_period_504889_month 2)))
 (let ((?x4731 (ite (= x_shift_period_504889_month 1) 0 (ite $x4240 31 (ite (= x_shift_period_504889_month 3) 59 ?x3304)))))
 (let ((?x1575 (+ ?x4731 (ite (and $x2685 (> x_shift_period_504889_month 2)) 1 0))))
 (let ((?x4708 (+ (* 365 (- x_shift_period_504889_year 1)) (div (- x_shift_period_504889_year 1) 4))))
 (let ((?x4912 (+ (- ?x4708 (div (- x_shift_period_504889_year 1) 100)) (div (- x_shift_period_504889_year 1) 400))))
 (let (($x2951 (= x_shift_period_504889_epoch (+ (+ ?x4912 ?x1575) (- x_shift_period_504889_day 1)))))
 (let (($x5427 (<= x_shift_period_504889_year 2400)))
 (let (($x5426 (>= x_shift_period_504889_year 1600)))
 (let ((?x2896 (ite (or $x185 $x5203 $x3701 (= x_shift_period_504889_month 11)) 30 31)))
 (let (($x1299 (>= x_shift_period_504889_day 1)))
 (let (($x4241 (<= x_shift_period_504889_month 12)))
 (let (($x2048 (>= x_shift_period_504889_month 1)))
 (and $x2048 $x4241 $x1299 (<= x_shift_period_504889_day (ite $x4240 (ite $x2685 29 28) ?x2896)) $x5426 $x5427 $x2951))))))))))))))))))))))))
(assert
 (let ((?x1625 (+ (mod (+ (+ (* 12 x_year) (- x_month 1)) 0) 12) 1)))
 (let (($x2751 (= ?x1625 11)))
 (let (($x2727 (= ?x1625 9)))
 (let (($x2718 (= ?x1625 6)))
 (let (($x2716 (= ?x1625 4)))
 (let ((?x1306 (* 12 x_year)))
 (let ((?x2663 (+ ?x1306 (- x_month 1))))
 (let ((?x2752 (+ ?x2663 0)))
 (let ((?x918 (div ?x2752 12)))
 (let (($x2214 (ite (= (mod ?x918 400) 0) true (ite (= (mod ?x918 100) 0) false (= (mod ?x918 4) 0)))))
 (let (($x2530 (= ?x1625 2)))
 (let ((?x2916 (ite $x2530 (ite $x2214 29 28) (ite (or $x2716 $x2718 $x2727 $x2751) 30 31))))
 (let ((?x1273 (ite (<= x_day ?x2916) x_day ?x2916)))
 (let (($x737 (= x_month 11)))
 (let (($x652 (= x_month 9)))
 (let (($x395 (= x_month 6)))
 (let (($x788 (= x_month 4)))
 (let ((?x564 (ite (or $x788 $x395 $x652 $x737) 30 31)))
 (let (($x672 (= (mod x_year 4) 0)))
 (let (($x356 (= (mod x_year 100) 0)))
 (let (($x938 (= (mod x_year 400) 0)))
 (let (($x1010 (ite $x938 true (ite $x356 false $x672))))
 (let (($x620 (= x_month 2)))
 (let ((?x889 (ite $x620 (ite $x1010 29 28) ?x564)))
 (let (($x242 (= x_day ?x889)))
 (let ((?x3596 (ite (= ?x1625 8) 212 (ite $x2727 243 (ite (= ?x1625 10) 273 (ite $x2751 304 334))))))
 (let ((?x1219 (ite (= ?x1625 5) 120 (ite $x2718 151 (ite (= ?x1625 7) 181 ?x3596)))))
 (let ((?x2017 (ite (= ?x1625 1) 0 (ite $x2530 31 (ite (= ?x1625 3) 59 (ite $x2716 90 ?x1219))))))
 (let ((?x3401 (- (+ (* 365 (- ?x918 1)) (div (- ?x918 1) 4)) (div (- ?x918 1) 100))))
 (let ((?x1906 (+ (+ ?x3401 (div (- ?x918 1) 400)) (+ ?x2017 (ite (and $x2214 (> ?x1625 2)) 1 0)))))
 (let ((?x2517 (+ ?x1906 (- (ite false (ite $x242 ?x2916 ?x1273) ?x1273) 1))))
 (let ((?x1747 (+ ?x2517 365)))
 (= x_shift_period_504889_epoch ?x1747))))))))))))))))))))))))))))))))))
(assert
 (not (= y_epoch x_shift_period_504889_epoch)))
(check-sat)
